Max_Width = 10;
Max_Height = 10;
Height = 10;
Width = 10;
grid =  [|0, 0, 1, -1, -1, -1, -1, -1, -1, -1
 | 0, 0, 2, -1, -1, -1, -1, -1, -1, -1
 | -1, 0, 3, -1, -1, -1, -1, -1, -1, -1
 | 1, 1, 2, -1, -1, -1, -1, -1, -1, -1
 | -1, -1, -1, -1, -1, -1, -1, -1, -1, -1
 | -1, -1, -1, -1, -1, -1, -1, -1, -1, -1
 | -1, -1, -1, -1, -1, -1, -1, -1, -1, -1
 | -1, -1, -1, -1, -1, -1, -1, -1, -1, -1
 | -1, -1, -1, -1, -1, -1, -1, -1, -1, -1
 | -1, -1, -1, -1, -1, -1, -1, -1, -1, -1|]
        
        